min:x1+x2+x3+x4+x5+x6+x7+x8+x9+x10+x11+x12+x13+x14+x15+x16+x17+x18+x19+x20+x21+x22+x23+x24+x25+x26+x27+x28+x29+x30;
    A1+B1=1;
    A2+B2=1;
    A3+B3=1;
    A4+B4=1;
    A5+B5=1;
    A6+B6=1;
    A7+B7=1;
    A8+B8=1;
    A9+B9=1;
    A10+B10=1;
    A11+B11=1;
    A12+B12=1;
    A13+B13=1;
    A14+B14=1;
    A15+B15=1;
    A16+B16=1;
    A17+B17=1;
    A18+B18=1;
    A19+B19=1;
    A20+B20=1;
    A21+B21=1;
    A22+B22=1;
    A23+B23=1;
    A24+B24=1;
    A25+B25=1;
    A26+B26=1;
    A27+B27=1;
    A28+B28=1;
    A29+B29=1;
    A30+B30=1;
    A31+B31=1;
    A32+B32=1;
    A33+B33=1;
    A34+B34=1;
    A35+B35=1;
    A36+B36=1;
    A37+B37=1;
    A38+B38=1;
    A39+B39=1;
    A40+B40=1;
    A41+B41=1;
    A42+B42=1;
    A43+B43=1;
    A44+B44=1;
    A45+B45=1;
    A46+B46=1;
    A47+B47=1;
    A48+B48=1;
    A49+B49=1;
    A50+B50=1;
    A51+B51=1;
    A52+B52=1;
    A53+B53=1;
    A54+B54=1;
    A55+B55=1;
    A56+B56=1;
    A57+B57=1;
    A58+B58=1;
    A59+B59=1;
    A60+B60=1;
    A61+B61=1;
    A62+B62=1;
    A63+B63=1;
    A64+B64=1;
    A65+B65=1;
    A66+B66=1;
    A67+B67=1;
    A68+B68=1;
    A69+B69=1;
    A70+B70=1;
    A71+B71=1;
    A72+B72=1;
    A73+B73=1;
    A74+B74=1;
    A75+B75=1;
    A76+B76=1;
    A77+B77=1;
    A78+B78=1;
    A79+B79=1;
    A80+B80=1;
    A81+B81=1;
    A82+B82=1;
    A83+B83=1;
    A84+B84=1;
    A85+B85=1;
    A86+B86=1;
    A87+B87=1;
    A88+B88=1;
    A89+B89=1;
    A90+B90=1;
    A91+B91=1;
    A92+B92=1;
    A93+B93=1;
    A94+B94=1;
    A95+B95=1;
    A96+B96=1;
    A97+B97=1;
    A98+B98=1;
    A99+B99=1;
    A100+B100=1;
    A101+B101=1;
    A102+B102=1;
    A103+B103=1;
    A104+B104=1;
    A105+B105=1;
    A106+B106=1;
    A107+B107=1;
    A108+B108=1;
    A109+B109=1;
    A110+B110=1;
    A111+B111=1;
    A112+B112=1;
    A113+B113=1;
    A114+B114=1;
    A115+B115=1;
    A116+B116=1;
    A117+B117=1;
    A118+B118=1;
    A119+B119=1;
    A120+B120=1;
    A121+B121=1;
    A122+B122=1;
    A123+B123=1;
    A124+B124=1;
    A125+B125=1;
    A126+B126=1;
    A127+B127=1;
    A128+B128=1;
    A129+B129=1;
    A130+B130=1;
    A131+B131=1;
    A132+B132=1;
    A133+B133=1;
    A134+B134=1;
    A135+B135=1;
    A136+B136=1;
    A137+B137=1;
    A138+B138=1;
    A139+B139=1;
    A140+B140=1;
    A141+B141=1;
    A142+B142=1;
    A143+B143=1;
    A144+B144=1;
    A145+B145=1;
    A146+B146=1;
    A147+B147=1;
    A148+B148=1;
    A149+B149=1;
    A150+B150=1;
    A151+B151=1;
    A152+B152=1;
    A153+B153=1;
    A154+B154=1;
    A155+B155=1;
    A156+B156=1;
    A157+B157=1;
    A158+B158=1;
    A159+B159=1;
    A160+B160=1;
    A161+B161=1;
    A1+A2+A3+A4+A5+A6+A7+A8+A9+A10+A11+7 x1>=7;
    A12+A13+A14+A15+A16+A17+A18+A19+A20+A21+8 x2>=8;
    B12+A22+A23+A24+A25+A26+A27+A28+A29+5 x3>=5;
    A30+A31+A32+A33+A34+A35+A36+A37+A38+A39+3 x4>=3;
    B13+A40+A41+A42+A43+A44+A45+A46+A47+A48+7 x5>=7;
    B22+A49+A50+A51+A52+A53+A54+A55+A56+A57+A58+A59+1 x6>=1;
    B1+B14+B40+A60+A61+A62+A63+A64+A65+A66+A67+A68+5 x7>=5;
    B2+B23+B41+A69+A70+A71+A72+A73+A74+A75+A76+6 x8>=6;
    B3+B24+A77+A78+A79+A80+A81+A82+A83+A84+4 x9>=4;
    B15+B49+A85+A86+A87+A88+A89+A90+A91+3 x10>=3;
    B4+B25+B30+B60+A92+A93+A94+A95+A96+A97+A98+A99+A100+A101+4 x11>=4;
    B5+B42+B50+B77+A102+A103+A104+A105+A106+1 x12>=1;
    B43+B51+B69+B78+A107+A108+A109+A110+5 x13>=5;
    B6+B16+B31+B52+B70+B79+B92+A111+A112+A113+A114+A115+2 x14>=2;
    B26+B44+B53+B102+A116+A117+A118+A119+A120+8 x15>=8;
    B32+B54+B85+B111+B116+A121+A122+A123+A124+A125+A126+A127+11 x16>=11;
    B7+B33+B71+B86+B93+B121+A128+A129+5 x17>=5;
    B34+B80+B87+B94+B107+B117+A130+A131+A132+A133+A134+A135+A136+8 x18>=8;
    B17+B45+B55+B61+B95+B108+B122+B130+A137+A138+A139+A140+A141+A142+A143+A144+2 x19>=2;
    B18+B56+B62+B88+B96+B103+B109+B112+B123+B128+B131+B137+A145+A146+A147+A148+A149+9 x20>=9;
    B35+B46+B57+B63+B72+B81+B97+B132+B145+A150+A151+A152+7 x21>=7;
    B8+B19+B73+B82+B98+B104+B110+B113+B118+B124+B133+B138+A153+A154+2 x22>=2;
    B27+B36+B64+B74+B105+B114+B119+B134+A155+A156+A157+10 x23>=10;
    B37+B115+B139+B150+A158+5 x24>=5;
    B28+B58+B65+B83+B89+B99+B129+B140+B151+B155+A159+A160+1 x25>=1;
    B66+B90+B146+A161+2 x26>=2;
    B20+B38+B47+B125+B135+B141+B147+B156+2 x27>=2;
    B9+B29+B48+B67+B100+B106+B120+B142+B152+B157+B161+11 x28>=11;
    B10+B59+B68+B75+B84+B91+B101+B126+B143+B148+B153+B158+B159+6 x29>=6;
    B11+B21+B39+B76+B127+B136+B144+B149+B154+B160+6 x30>=6;
bin A1,B1,A2,B2,A3,B3,A4,B4,A5,B5,A6,B6,A7,B7,A8,B8,A9,B9,A10,B10,A11,B11,A12,B12,A13,B13,A14,B14,A15,B15,A16,B16,A17,B17,A18,B18,A19,B19,A20,B20,A21,B21,A22,B22,A23,B23,A24,B24,A25,B25,A26,B26,A27,B27,A28,B28,A29,B29,A30,B30,A31,B31,A32,B32,A33,B33,A34,B34,A35,B35,A36,B36,A37,B37,A38,B38,A39,B39,A40,B40,A41,B41,A42,B42,A43,B43,A44,B44,A45,B45,A46,B46,A47,B47,A48,B48,A49,B49,A50,B50,A51,B51,A52,B52,A53,B53,A54,B54,A55,B55,A56,B56,A57,B57,A58,B58,A59,B59,A60,B60,A61,B61,A62,B62,A63,B63,A64,B64,A65,B65,A66,B66,A67,B67,A68,B68,A69,B69,A70,B70,A71,B71,A72,B72,A73,B73,A74,B74,A75,B75,A76,B76,A77,B77,A78,B78,A79,B79,A80,B80,A81,B81,A82,B82,A83,B83,A84,B84,A85,B85,A86,B86,A87,B87,A88,B88,A89,B89,A90,B90,A91,B91,A92,B92,A93,B93,A94,B94,A95,B95,A96,B96,A97,B97,A98,B98,A99,B99,A100,B100,A101,B101,A102,B102,A103,B103,A104,B104,A105,B105,A106,B106,A107,B107,A108,B108,A109,B109,A110,B110,A111,B111,A112,B112,A113,B113,A114,B114,A115,B115,A116,B116,A117,B117,A118,B118,A119,B119,A120,B120,A121,B121,A122,B122,A123,B123,A124,B124,A125,B125,A126,B126,A127,B127,A128,B128,A129,B129,A130,B130,A131,B131,A132,B132,A133,B133,A134,B134,A135,B135,A136,B136,A137,B137,A138,B138,A139,B139,A140,B140,A141,B141,A142,B142,A143,B143,A144,B144,A145,B145,A146,B146,A147,B147,A148,B148,A149,B149,A150,B150,A151,B151,A152,B152,A153,B153,A154,B154,A155,B155,A156,B156,A157,B157,A158,B158,A159,B159,A160,B160,A161,B161,x1,x2,x3,x4,x5,x6,x7,x8,x9,x10,x11,x12,x13,x14,x15,x16,x17,x18,x19,x20,x21,x22,x23,x24,x25,x26,x27,x28,x29,x30;